CMPL model generation - running

CMPL version: 1.11.0
Authors: Thomas Schleiff, Mike Steglich
Distributed under the GPLv3 

create model instance ...
write model instance ...
CMPL model generation - finished

Solver - running


Welcome to IBM(R) ILOG(R) CPLEX(R) Interactive Optimizer 12.7.1.0
  with Simplex, Mixed Integer & Barrier Optimizers
5725-A06 5725-A29 5724-Y48 5724-Y49 5724-Y54 5724-Y55 5655-Y21
Copyright IBM Corp. 1988, 2017.  All Rights Reserved.

Type 'help' for a list of available commands.
Type 'help' followed by a command name for more
information on commands.

CPLEX> Specified objective sense: MINIMIZE
Selected objective  name:  line[1]
Selected RHS        name:  RHS
Selected bound      name:  BOUND
Problem '/tmp/cmpl.T24014.mps' read.
Read time = 0.06 sec. (8.17 ticks)
CPLEX> CPXPARAM_Read_APIEncoding                        "UTF-8"
Tried aggregator 3 times.
MIP Presolve eliminated 19238 rows and 30711 columns.
MIP Presolve modified 340 coefficients.
Aggregator did 625 substitutions.
Reduced MIP has 2492 rows, 3257 columns, and 9503 nonzeros.
Reduced MIP has 3089 binaries, 0 generals, 0 SOSs, and 0 indicators.
Presolve time = 0.06 sec. (40.39 ticks)
Found incumbent of value 613.315135 after 0.10 sec. (60.16 ticks)
Probing fixed 6 vars, tightened 0 bounds.
Probing time = 0.01 sec. (4.22 ticks)
Tried aggregator 1 time.
MIP Presolve eliminated 0 rows and 6 columns.
MIP Presolve modified 22 coefficients.
Reduced MIP has 2492 rows, 3251 columns, and 9491 nonzeros.
Reduced MIP has 3251 binaries, 0 generals, 0 SOSs, and 0 indicators.
Presolve time = 0.01 sec. (8.02 ticks)
Probing time = 0.01 sec. (2.68 ticks)
Clique table members: 5915.
MIP emphasis: balance optimality and feasibility.
MIP search method: dynamic search.
Parallel mode: none, using 1 thread.
Root relaxation solution time = 0.01 sec. (4.53 ticks)

        Nodes                                         Cuts/
   Node  Left     Objective  IInf  Best Integer    Best Bound    ItCnt     Gap

*     0+    0                          613.3151      -40.2536           106.56%
      0     0      126.4380    14      613.3151      126.4380      117   79.38%
*     0+    0                          136.4806      126.4380             7.36%
*     0+    0                          126.8380      126.4380             0.32%
      0     0      126.7756     2      126.8380      Cuts: 22      124    0.05%
*     0+    0                          126.7793      126.7756             0.00%
      0     0        cutoff            126.7793      126.7756      124    0.00%
Elapsed time = 0.18 sec. (100.95 ticks, tree = 0.01 MB, solutions = 4)

GUB cover cuts applied:  2
Clique cuts applied:  4
Cover cuts applied:  10
Gomory fractional cuts applied:  6

Root node processing (before b&c):
  Real time             =    0.18 sec. (102.67 ticks)
Sequential b&c:
  Real time             =    0.00 sec. (0.00 ticks)
                          ------------
Total (root+branch&cut) =    0.18 sec. (102.67 ticks)

Solution pool: 4 solutions saved.

MIP - Integer optimal solution:  Objective =  1.2677925300e+02
Solution time =    0.18 sec.  Iterations = 124  Nodes = 0
Deterministic time = 102.77 ticks  (567.11 ticks/sec)

CPLEX> Incumbent solution written to file '/tmp/cmpl.T24014.gsol'.
CPLEX> 
CMPL: Time used for model generation: 1 seconds
CMPL: Time used for solving the model: 1 seconds


Solution written to ASCII file: results/output_generated_conf_0.4/2017-04-03-4/fair-nonlinear.sol

Solver - finished
